(set-logic HORN)
(declare-fun state (Int Bool Int Int Int (Array Int Int) Int (Array Int Int) Bool Bool Int Int Int Int (Array Int Int) (Array Int Int)) Bool)
(assert (forall ((|.y.11| Int) (|A_3| Bool) (|B_2| Int) (|C_2| Int) (|F_2| Int) (|G_2| (Array Int Int)) (|J_2| Int) (|K_2| (Array Int Int)) (|.loc.12| Bool) (|.loc.13| Bool) (|U| Int) (|X| Int) (|D1| Int) (|A1| Int) (|Q| (Array Int Int)) (|B| (Array Int Int)) (|.loc.22| Bool) (|.loc.23| Bool) (|.y.18| Int) (|.y.19| (Array Int Int)) (|.y.20| Int) (|.y.21| (Array Int Int)) (|.y.15| Bool) (|.y.17| Int) (|.y.16| Int) (|.y.14| Int) (|.xtv.1| Int) (|.xtv.2| Int) (|.xtv.3| Int) (|.xtv.4| Int) (|.xtv.5| (Array Int Int)) (|.xtv.6| (Array Int Int))) (=> (and (not .loc.13) (not .loc.12)) (state |.y.11| |A_3| |B_2| |C_2| |F_2| |G_2| |J_2| |K_2| |.loc.12| |.loc.13| |U| |X| |D1| |A1| |Q| |B|))))
(assert (forall ((|.y.11| Int) (|A_3| Bool) (|B_2| Int) (|C_2| Int) (|F_2| Int) (|G_2| (Array Int Int)) (|J_2| Int) (|K_2| (Array Int Int)) (|.loc.12| Bool) (|.loc.13| Bool) (|U| Int) (|X| Int) (|D1| Int) (|A1| Int) (|Q| (Array Int Int)) (|B| (Array Int Int)) (|.loc.22| Bool) (|.loc.23| Bool) (|.y.18| Int) (|.y.19| (Array Int Int)) (|.y.20| Int) (|.y.21| (Array Int Int)) (|.y.15| Bool) (|.y.17| Int) (|.y.16| Int) (|.y.14| Int) (|.xtv.1| Int) (|.xtv.2| Int) (|.xtv.3| Int) (|.xtv.4| Int) (|.xtv.5| (Array Int Int)) (|.xtv.6| (Array Int Int))) (=> (and (state |.y.11| |A_3| |B_2| |C_2| |F_2| |G_2| |J_2| |K_2| |.loc.12| |.loc.13| |U| |X| |D1| |A1| |Q| |B|) (let ((.def_37 (<= F_2 0))) (let ((.def_42 (<= J_2 0))) (let ((.def_55 (and (not A_3) (and (not .def_42) (not .def_37))))) (let ((.def_61 (not (<= 4 C_2)))) (let ((.def_63 (<= (- 1) C_2))) (let ((.def_101 (<= .y.18 0))) (let ((.def_103 (<= .y.20 0))) (let ((.def_138 (not .loc.23))) (and (not .loc.13) (or (or (and (not .loc.22) (and (and .loc.12 (and (and (and (or (not (<= (+ C_2 F_2) (- 1))) .def_37) (and (or (not (<= (+ B_2 J_2) 1)) .def_42) (and (not (= (select K_2 (+ (+ B_2 J_2) (- 1))) (select G_2 (+ (+ C_2 F_2) 1)))) .def_55))) .def_61) .def_63)) .loc.23)) (and (= (store (store (store (store (store B .y.18 D1) (+ .y.18 1) A1) (+ .y.18 2) X) (+ .y.18 3) U) (+ .y.18 4) 0) .y.19) (and (= (store (store (store (store (store Q .y.20 0) (+ .y.20 1) U) (+ .y.20 2) X) (+ .y.20 3) A1) (+ .y.20 4) D1) .y.21) (and (not .def_101) (and (not .def_103) (and (or .def_101 (not (<= .y.18 (- 1)))) (and (or .def_101 (not (<= .y.18 (- 2)))) (and (or .def_101 (not (<= .y.18 (- 3)))) (and (or .def_101 (not (<= .y.18 (- 4)))) (and (or .def_103 (not (<= .y.20 (- 1)))) (and (or .def_103 (not (<= .y.20 (- 2)))) (and (or .def_103 (not (<= .y.20 (- 4)))) (and (or .def_103 (not (<= .y.20 (- 3)))) (and (not .y.15) (and (= .y.17 0) (and (= .y.16 4) (and (not .loc.12) (and .loc.22 .def_138)))))))))))))))))) (and (= K_2 .y.21) (and (= J_2 .y.20) (and (= G_2 .y.19) (and (= F_2 .y.18) (and (= (+ C_2 (+ F_2 (* (- 1) U))) (- 1)) (and (= (+ B_2 (+ J_2 (* (- 1) X))) 1) (and (or .def_37 (not (<= U 0))) (and (or .def_42 (not (<= X 0))) (and (= (+ C_2 (* (- 1) .y.17)) (- 1)) (and (= (+ J_2 (+ (* (- 1) X) .y.16)) 0) (and (= .y.15 (not (= (select K_2 X) (select G_2 U)))) (and .def_138 (and .loc.22 (and .loc.12 (and .def_63 (and .def_55 .def_61))))))))))))))))))))))))))) (state |.y.14| |.y.15| |.y.16| |.y.17| |.y.18| |.y.19| |.y.20| |.y.21| |.loc.22| |.loc.23| |.xtv.1| |.xtv.2| |.xtv.3| |.xtv.4| |.xtv.5| |.xtv.6|))))
(assert (forall ((|.y.11| Int) (|A_3| Bool) (|B_2| Int) (|C_2| Int) (|F_2| Int) (|G_2| (Array Int Int)) (|J_2| Int) (|K_2| (Array Int Int)) (|.loc.12| Bool) (|.loc.13| Bool) (|U| Int) (|X| Int) (|D1| Int) (|A1| Int) (|Q| (Array Int Int)) (|B| (Array Int Int)) (|.loc.22| Bool) (|.loc.23| Bool) (|.y.18| Int) (|.y.19| (Array Int Int)) (|.y.20| Int) (|.y.21| (Array Int Int)) (|.y.15| Bool) (|.y.17| Int) (|.y.16| Int) (|.y.14| Int) (|.xtv.1| Int) (|.xtv.2| Int) (|.xtv.3| Int) (|.xtv.4| Int) (|.xtv.5| (Array Int Int)) (|.xtv.6| (Array Int Int))) (=> (state |.y.11| |A_3| |B_2| |C_2| |F_2| |G_2| |J_2| |K_2| |.loc.12| |.loc.13| |U| |X| |D1| |A1| |Q| |B|) (not (and .loc.13 (not .loc.12))))))
(check-sat)
